CMD:
./solvers/bin/cadical --plain --no-reduce -t 1600 ./data/cnfs//shift_register_top_w32_d8_e0/shift_register_top_w32_d8_e0.35.cnf

c --- [ banner ] -------------------------------------------------------------
c 
c CaDiCaL SAT Solver
c Copyright (c) 2016-2024
c A. Biere, M. Fleury, N. Froleyks, K. Fazekas, F. Pollitt, T. Faller
c JKU Linz, University of Freiburg, TU Wien
c 
c Version 2.1.3 5296d3d2a9bf48c154ab2acb5e44625776d821bf
c g++ (Gentoo 12.3.1_p20230526 p2) 12.3.1 20230526 -Wall -Wextra -O3 -DNDEBUG
c Sat Aug 9 07:26:21 PDT 2025 Linux cedar2.int.cedar.computecanada.ca 5.14.0-362.24.2.el9_3.x86_64 x86_64
c 
c --- [ limit ] --------------------------------------------------------------
c 
c setting time limit to 1600 seconds real time (due to '-t 1600')
c 
c --- [ parsing input ] ------------------------------------------------------
c 
c reading DIMACS file from './data/cnfs//shift_register_top_w32_d8_e0/shift_register_top_w32_d8_e0.35.cnf'
c opening file to read './data/cnfs//shift_register_top_w32_d8_e0/shift_register_top_w32_d8_e0.35.cnf'
c found 'p cnf 87672 254737' header
c parsed 254737 clauses in 0.04 seconds process time
c 
c --- [ options ] ------------------------------------------------------------
c 
c   --compact=false                (different from default 'true')
c   --decompose=false              (different from default 'true')
c   --deduplicate=false            (different from default 'true')
c   --elim=false                   (different from default 'true')
c   --probe=false                  (different from default 'true')
c   --reduce=false                 (different from default 'true')
c   --subsume=false                (different from default 'true')
c   --ternary=false                (different from default 'true')
c   --transred=false               (different from default 'true')
c   --vivify=false                 (different from default 'true')
c 
c --- [ solving ] ------------------------------------------------------------
c 
c time measured in process time since initialization
c 
c  seconds  reductions  redundant  irredundant
c         MB    restarts       trail       variables
c          level   conflicts       glue         remaining
c 
c *  0.04 43  0 0   0    0    0  0% 0 249659 82578 94%
c {  0.06 44  0 0   0    0    0  0% 0 249659 82578 94%
c i  0.06 45 2311 0   0    9    8 94% 1 249659 82321 94%
c i  0.07 45 1568 0   9  104   72 76% 2 249659 82064 94%
c i  0.07 45 1108 0  12  137   99 62% 2 249659 82005 94%
c i  0.10 45 598 0  49  281  237 47% 3 249659 81999 94%
c i  0.10 45 577 0  52  291  244 46% 3 249659 81984 94%
c i  0.15 45 346 0 108  507  443 45% 12 249659 81980 94%
c i  0.16 45 341 0 110  516  451 45% 12 249659 81979 94%
c i  0.17 45 288 0 120  643  574 43% 11 249659 81823 93%
c i  0.18 45 214 0 124  937  823 40% 9 249659 81614 93%
c }  0.18 45 203 0 124 1002  883 40% 9 249659 81614 93%
c [  0.18 45  0 0 124 1002  883  0% 0 249659 81614 93%
c O  0.19 45 835 0 124 1003  884 91% 3 249659 81614 93%
c i  0.22 45 693 0 124 1181 1031 64% 9 249659 81480 93%
c i  0.83 46 326 0 125 3001 2700 63% 22 249659 81447 93%
c ]  0.83 46 326 0 125 3003 2702 63% 22 249659 81447 93%
c {  0.83 46 203 0 125 3003 2702 40% 9 249659 81447 93%
c F  0.83 46 203 0 125 3004 2703 40% 9 249659 81447 93%
c i  0.85 46 192 0 128 3258 2947 40% 8 249659 81438 93%
c 
c  seconds   reductions  redundant  irredundant
c         MB     restarts       trail       variables
c           level   conflicts       glue         remaining
c 
c i  0.87 46 143 0 142 3802 3449 35% 8 249659 81431 93%
c #  0.98 46 196 0 165 6006 5368 44% 7 249659 81431 93%
c }  1.03 47 167 0 177 7004 6290 42% 7 249659 81431 93%
c [  1.03 47 326 0 177 7004 6290 63% 22 249659 81431 93%
c i  1.15 47 231 0 178 7950 7103 52% 18 249659 81430 93%
c i  1.17 47 228 0 178 8034 7179 52% 18 249659 81429 93%
c i  1.18 47 227 0 178 8047 7190 52% 18 249659 81428 93%
c i  1.54 47 185 0 179 9327 8407 52% 17 249659 81427 93%
c i  1.58 47 167 0 179 9871 8818 50% 16 249659 81426 93%
c I  1.59 47 163 0 179 10009 8931 49% 16 249659 81426 93%
c i  1.69 48 136 0 181 11473 10222 47% 15 249659 81420 93%
c i  1.80 48 119 0 181 12835 11429 44% 14 249659 81419 93%
c ]  1.99 48 103 0 182 15006 13400 42% 13 249659 81419 93%
c {  1.99 48 167 0 182 15006 13400 42% 7 249659 81419 93%
c B  1.99 48 166 0 182 15011 13400 42% 7 249659 81419 93%
c i  2.11 49 151 0 284 16311 14650 41% 8 249659 81417 93%
c }  2.36 50 128 0 414 18692 16819 41% 9 249659 81417 93%
c 1  2.36 50 128 0 414 18692 16819 41% 9 249659 81417 93%
c 
c --- [ result ] -------------------------------------------------------------
c 
s SATISFIABLE
v 1 -2 -3 -4 -5 -6 -7 -8 -9 -10 -11 -12 -13 -14 -15 -16 -17 -18 -19 -20 -21
v -22 -23 -24 -25 -26 -27 -28 -29 -30 -31 -32 -33 -34 -35 -36 -37 -38 -39 -40
v -41 -42 -43 -44 -45 -46 -47 -48 -49 -50 -51 -52 -53 -54 -55 -56 -57 -58 -59
v -60 -61 -62 -63 -64 -65 66 67 68 69 70 -71 -72 -73 -74 -75 -76 -77 -78 -79
v -80 -81 -82 -83 -84 -85 -86 -87 -88 -89 -90 -91 -92 -93 -94 -95 -96 -97 -98
v -99 -100 -101 -102 -103 -104 -105 -106 -107 -108 -109 -110 -111 -112 -113
v -114 -115 -116 -117 -118 -119 -120 -121 -122 -123 -124 -125 -126 -127 -128
... skipped 7740 lines ...
v 87109 -87110 -87111 87112 -87113 -87114 -87115 -87116 87117 -87118 -87119
v 87120 -87121 -87122 -87123 -87124 87125 -87126 -87127 87128 -87129 -87130
v -87131 -87132 87133 -87134 -87135 87136 -87137 -87138 -87139 -87140 87141
v -87142 -87143 87144 -87145 -87146 -87147 -87148 87149 -87150 -87151 87152
v -87153 -87154 -87155 -87156 87157 -87158 -87159 87160 -87161 -87162 -87163
v -87164 87165 -87166 -87167 87168 -87169 -87170 -87171 -87172 87173 -87174
v -87175 87176 -87177 -87178 -87179 -87180 87181 -87182 -87183 87184 -87185
v -87186 -87187 -87188 87189 -87190 -87191 87192 -87193 -87194 -87195 -87196
v 87197 -87198 -87199 87200 -87201 -87202 -87203 -87204 87205 -87206 -87207
v 87208 -87209 -87210 -87211 -87212 87213 -87214 -87215 87216 -87217 -87218
v -87219 -87220 87221 -87222 -87223 87224 -87225 -87226 -87227 -87228 87229
v -87230 -87231 87232 -87233 -87234 -87235 -87236 87237 -87238 -87239 -87240
v -87241 -87242 -87243 87244 87245 -87246 -87247 -87248 87249 -87250 87251
v -87252 -87253 87254 -87255 87256 -87257 -87258 -87259 -87260 87261 -87262
v -87263 -87264 -87265 -87266 -87267 87268 -87269 -87270 -87271 -87272 -87273
v -87274 87275 -87276 -87277 -87278 -87279 87280 -87281 -87282 87283 -87284
v -87285 -87286 -87287 -87288 -87289 -87290 -87291 -87292 87293 -87294 -87295
v 87296 -87297 -87298 -87299 -87300 87301 -87302 -87303 87304 -87305 -87306
v -87307 -87308 87309 -87310 -87311 87312 -87313 -87314 -87315 -87316 87317
v -87318 -87319 87320 -87321 -87322 -87323 -87324 87325 -87326 -87327 87328
v -87329 -87330 -87331 -87332 87333 -87334 -87335 87336 -87337 -87338 -87339
v -87340 87341 -87342 -87343 87344 -87345 -87346 -87347 87348 -87349 87350
v -87351 -87352 87353 -87354 87355 -87356 87357 -87358 -87359 87360 -87361
v -87362 -87363 -87364 87365 -87366 -87367 87368 -87369 -87370 -87371 -87372
v 87373 -87374 -87375 87376 -87377 -87378 -87379 -87380 87381 -87382 -87383
v 87384 -87385 -87386 -87387 -87388 87389 -87390 -87391 87392 -87393 -87394
v -87395 -87396 87397 -87398 -87399 87400 -87401 -87402 -87403 -87404 87405
v -87406 -87407 87408 -87409 -87410 -87411 -87412 87413 -87414 -87415 87416
v -87417 -87418 -87419 -87420 87421 -87422 -87423 87424 -87425 -87426 -87427
v -87428 87429 -87430 -87431 87432 -87433 -87434 -87435 -87436 87437 -87438
v -87439 87440 -87441 -87442 -87443 -87444 87445 -87446 -87447 87448 -87449
v -87450 -87451 -87452 87453 -87454 -87455 87456 -87457 -87458 -87459 -87460
v 87461 -87462 -87463 87464 -87465 -87466 -87467 -87468 87469 -87470 -87471
v 87472 -87473 -87474 -87475 -87476 87477 -87478 -87479 87480 -87481 -87482
v -87483 -87484 87485 -87486 -87487 87488 -87489 -87490 -87491 -87492 87493
v -87494 -87495 87496 -87497 -87498 -87499 -87500 87501 -87502 -87503 87504
v -87505 -87506 -87507 -87508 87509 -87510 -87511 87512 -87513 -87514 -87515
v -87516 87517 -87518 -87519 87520 -87521 -87522 -87523 -87524 87525 -87526
v -87527 87528 -87529 -87530 -87531 -87532 87533 -87534 -87535 87536 -87537
v -87538 -87539 87540 -87541 87542 -87543 87544 -87545 -87546 87547 -87548
v 87549 -87550 87551 -87552 87553 -87554 87555 -87556 87557 -87558 87559
v -87560 87561 -87562 87563 -87564 87565 -87566 87567 -87568 87569 -87570
v 87571 -87572 87573 -87574 87575 -87576 87577 -87578 -87579 87580 -87581
v -87582 -87583 87584 -87585 -87586 -87587 87588 -87589 -87590 -87591 87592
v -87593 -87594 -87595 87596 -87597 -87598 -87599 87600 -87601 -87602 -87603
v 87604 -87605 -87606 -87607 87608 -87609 -87610 -87611 87612 -87613 -87614
v -87615 87616 -87617 -87618 -87619 87620 -87621 -87622 -87623 87624 -87625
v -87626 -87627 87628 -87629 -87630 -87631 87632 -87633 -87634 -87635 87636
v -87637 -87638 -87639 87640 -87641 -87642 -87643 87644 -87645 -87646 -87647
v 87648 -87649 -87650 87651 -87652 87653 -87654 -87655 87656 -87657 -87658
v -87659 87660 -87661 -87662 -87663 87664 -87665 -87666 -87667 87668 -87669
v -87670 87671 -87672 0
c 
c --- [ run-time profiling ] -------------------------------------------------
c 
c process time taken by individual solving procedures
c (percentage relative to process time for solving)
c 
c         2.33  100.00% search
c         1.61   69.42% stable
c         0.69   29.72% unstable
c         0.04    1.53% parse
c         0.02    0.85% lucky
c         0.00    0.00% simplify
c   =================================
c         2.33   98.31% solve
c 
c last line shows process time for solving
c (percentage relative to total process time)
c 
c --- [ statistics ] ---------------------------------------------------------
c 
c chronological:              8432        45.11 %  of conflicts
c conflicts:                 18692      8037.13    per second
c decisions:                181316     77961.70    per second
c fixed:                      6254         7.13 %  of all variables
c learned:                   18275        97.77 %  per conflict
c learned_lits:             728986       100.00 %  learned literals
c minimized:                     0         0.00 %  learned literals
c shrunken:                 196546        26.96 %  learned literals
c minishrunken:             118029        16.19 %  learned literals
c otfs:                         98         0.52 %  of conflict
c propagations:           51428392        22.11 M  per second
c rephased:                      5      3738.40    interval
c restarts:                    414        45.15    interval
c stabilizing:                   2        53.46 %  of conflicts
c subsumed:                   1451         0.54 %  of all clauses
c strengthened:                 82         0.03 %  of all clauses
c 
c seconds are measured in process time for solving
c 
c --- [ resources ] ----------------------------------------------------------
c 
c total process time since initialization:         2.37    seconds
c total real time since initialization:            2.38    seconds
c maximum resident set size of process:           49.10    MB
c 
c --- [ shutting down ] ------------------------------------------------------
c 
c exit 10
